NAME          MINIEXAMPLE                                    
ROWS                                                         
 N  COST                                                     
 E  EQ1                                                      
 E  EQ2                                                      
 E  EQ3                                                      
 E  EQ4                                                      
COLUMNS                                                      
    X1        EQ1       1                                    
    X2        EQ1       -2             EQ2       1           
    X3        EQ2       -1             EQ4       1           
    X4        EQ1       -2             EQ3       1           
    X5        EQ3       -1             EQ4       1           
    X6        EQ3       1              EQ4       -1          
    X7        EQ4       1                                    
    X8        COST      1              EQ1       -1          
    X8        EQ3       -2             EQ4       -2          
RHS                                                          
BOUNDS                                                       
 UP BND1      X1        10                                   
 UP BND1      X2        1000                                 
 UP BND1      X3        1000                                 
 UP BND1      X4        1000                                 
 UP BND1      X5        1000                                 
 LO BND1      X6        -1000                                
 UP BND1      X6        1000                                 
 LO BND1      X7        -1000                                
 UP BND1      X7        10                                   
 UP BND1      X8        1000                                 
ENDATA                                                       
